This is Ipopt version 3.14.16, running with linear solver MUMPS 5.7.3.

Number of nonzeros in equality constraint Jacobian...:        0
Number of nonzeros in inequality constraint Jacobian.:        1
Number of nonzeros in Lagrangian Hessian.............:        0

Total number of variables............................:        1
                     variables with only lower bounds:        0
                variables with lower and upper bounds:        1
                     variables with only upper bounds:        0
Total number of equality constraints.................:        0
Total number of inequality constraints...............:        1
        inequality constraints with only lower bounds:        0
   inequality constraints with lower and upper bounds:        1
        inequality constraints with only upper bounds:        0

iter    objective    inf_pr   inf_du lg(mu)  ||d||  lg(rg) alpha_du alpha_pr  ls
   0 -7.5806300e+00 0.00e+00 0.00e+00   0.0 0.00e+00    -  0.00e+00 0.00e+00   0
   1 -1.0222048e+01 0.00e+00 3.96e-03  -2.1 7.93e-03    -  9.98e-01 1.00e+00f  1
   2 -1.0959417e+01 0.00e+00 1.75e-03  -4.1 3.48e-03    -  9.96e-01 1.00e+00f  1
   3 -1.0959417e+01 0.00e+00 3.77e-05  -6.0 7.53e-05    -  1.00e+00 5.00e-01f  2
   4 -1.0959417e+01 0.00e+00 3.27e-05  -6.1 6.55e-05    -  1.00e+00 5.00e-01f  2
   5 -1.0959417e+01 0.00e+00 3.27e-05  -6.1 6.54e-05    -  1.00e+00 3.12e-02f  6
   6 -1.0959417e+01 0.00e+00 3.27e-05  -6.1 6.54e-05    -  1.00e+00 1.56e-02f  7
   7 -1.0959417e+01 0.00e+00 3.27e-05  -6.1 6.54e-05    -  1.00e+00 3.91e-03f  9
   8 -1.0959417e+01 0.00e+00 3.27e-05  -6.1 6.54e-05    -  1.00e+00 1.95e-03f 10
   9 -1.0959417e+01 0.00e+00 1.14e+06  -6.1 6.54e-05    -  1.00e+00 2.44e-04f 13
iter    objective    inf_pr   inf_du lg(mu)  ||d||  lg(rg) alpha_du alpha_pr  ls
  10 -1.1022101e+01 0.00e+00 3.08e-03  -6.1 2.28e+06    -  8.67e-07 5.88e-10f  5
  11 -1.1022101e+01 0.00e+00 1.23e-05  -6.6 1.44e-14    -  1.00e+00 1.00e+00f  1
  12 -1.1022101e+01 0.00e+00 9.81e-06  -6.7 1.15e-14    -  1.00e+00 1.00e+00f  1
  13 -1.1022101e+01 0.00e+00 9.81e-06  -6.7 1.15e-14    -  1.00e+00 1.00e+00f  1
  14 -1.1022101e+01 0.00e+00 9.80e-06  -6.7 1.96e-05    -  1.00e+00 1.00e+00f  1
  15 -1.1022101e+01 0.00e+00 9.79e-06  -6.7 1.96e-05    -  1.00e+00 1.00e+00f  1
  16 -1.1022101e+01 0.00e+00 9.78e-06  -6.7 1.96e-05    -  1.00e+00 1.00e+00f  1
  17 -1.1022101e+01 0.00e+00 9.77e-06  -6.7 1.95e-05    -  1.00e+00 1.00e+00f  1
  18 -1.1022101e+01 0.00e+00 9.76e-06  -6.7 1.95e-05    -  1.00e+00 1.00e+00f  1
  19 -1.1022101e+01 0.00e+00 9.75e-06  -6.7 1.95e-05    -  1.00e+00 1.00e+00f  1
iter    objective    inf_pr   inf_du lg(mu)  ||d||  lg(rg) alpha_du alpha_pr  ls
  20 -1.1022101e+01 0.00e+00 9.74e-06  -6.7 1.95e-05    -  1.00e+00 1.00e+00f  1
  21 -1.1022101e+01 0.00e+00 9.73e-06  -6.7 1.95e-05    -  1.00e+00 1.00e+00f  1
  22 -1.1022101e+01 0.00e+00 9.73e-06  -6.7 1.95e-05    -  1.00e+00 1.00e+00f  1
  23 -1.1022101e+01 0.00e+00 9.72e-06  -6.7 1.94e-05    -  1.00e+00 1.00e+00f  1
  24 -1.1022101e+01 0.00e+00 9.71e-06  -6.7 1.94e-05    -  1.00e+00 1.00e+00f  1
  25 -1.1022101e+01 0.00e+00 9.70e-06  -6.7 1.94e-05    -  1.00e+00 1.00e+00f  1
  26 -1.1022101e+01 0.00e+00 9.69e-06  -6.7 1.94e-05    -  1.00e+00 1.00e+00f  1
  27 -1.1022101e+01 0.00e+00 9.68e-06  -6.7 1.94e-05    -  1.00e+00 1.00e+00f  1
  28 -1.1022101e+01 0.00e+00 9.67e-06  -6.7 1.93e-05    -  1.00e+00 1.00e+00f  1
  29 -1.1022101e+01 0.00e+00 9.66e-06  -6.7 1.93e-05    -  1.00e+00 1.00e+00f  1
iter    objective    inf_pr   inf_du lg(mu)  ||d||  lg(rg) alpha_du alpha_pr  ls
  30 -1.1022101e+01 0.00e+00 9.65e-06  -6.7 1.93e-05    -  1.00e+00 1.00e+00f  1
  31 -1.1022101e+01 0.00e+00 9.64e-06  -6.7 1.93e-05    -  1.00e+00 1.00e+00f  1
  32 -1.1022101e+01 0.00e+00 9.63e-06  -6.7 1.93e-05    -  1.00e+00 1.00e+00f  1
  33 -1.1022101e+01 0.00e+00 9.62e-06  -6.7 1.92e-05    -  1.00e+00 1.00e+00f  1
  34 -1.1022101e+01 0.00e+00 9.61e-06  -6.7 1.92e-05    -  1.00e+00 1.00e+00f  1
  35 -1.1022101e+01 0.00e+00 9.61e-06  -6.7 1.92e-05    -  1.00e+00 1.00e+00f  1
  36 -1.1022101e+01 0.00e+00 9.60e-06  -6.7 1.92e-05    -  1.00e+00 1.00e+00f  1
  37 -1.1022101e+01 0.00e+00 9.59e-06  -6.7 1.92e-05    -  1.00e+00 1.00e+00f  1
  38 -1.1022101e+01 0.00e+00 9.58e-06  -6.7 1.92e-05    -  1.00e+00 1.00e+00f  1
  39 -1.1022101e+01 0.00e+00 9.57e-06  -6.7 1.91e-05    -  1.00e+00 1.00e+00f  1
iter    objective    inf_pr   inf_du lg(mu)  ||d||  lg(rg) alpha_du alpha_pr  ls
  40 -1.1022101e+01 0.00e+00 9.56e-06  -6.7 1.91e-05    -  1.00e+00 1.00e+00f  1
  41 -1.1022101e+01 0.00e+00 9.55e-06  -6.7 1.91e-05    -  1.00e+00 1.00e+00f  1
  42 -1.1022101e+01 0.00e+00 9.54e-06  -6.7 1.91e-05    -  1.00e+00 1.00e+00f  1
  43 -1.1022101e+01 0.00e+00 9.53e-06  -6.7 1.91e-05    -  1.00e+00 1.00e+00f  1
  44 -1.1022101e+01 0.00e+00 9.52e-06  -6.7 1.90e-05    -  1.00e+00 1.00e+00f  1
  45 -1.1022101e+01 0.00e+00 9.52e-06  -6.7 1.90e-05    -  1.00e+00 1.00e+00f  1
  46 -1.1022101e+01 0.00e+00 9.51e-06  -6.7 1.90e-05    -  1.00e+00 1.00e+00f  1
  47 -1.1022101e+01 0.00e+00 9.50e-06  -6.7 1.90e-05    -  1.00e+00 1.00e+00f  1
  48 -1.1022101e+01 0.00e+00 9.49e-06  -6.7 1.90e-05    -  1.00e+00 1.00e+00f  1
  49 -1.1022101e+01 0.00e+00 9.48e-06  -6.7 1.90e-05    -  1.00e+00 1.00e+00f  1
iter    objective    inf_pr   inf_du lg(mu)  ||d||  lg(rg) alpha_du alpha_pr  ls
  50 -1.1022101e+01 0.00e+00 9.47e-06  -6.7 1.89e-05    -  1.00e+00 1.00e+00f  1
  51 -1.1022101e+01 0.00e+00 9.46e-06  -6.7 1.89e-05    -  1.00e+00 1.00e+00f  1
  52 -1.1022101e+01 0.00e+00 9.45e-06  -6.7 1.89e-05    -  1.00e+00 1.00e+00f  1
  53 -1.1022101e+01 0.00e+00 9.45e-06  -6.7 1.89e-05    -  1.00e+00 1.00e+00f  1
  54 -1.1022101e+01 0.00e+00 9.44e-06  -6.7 1.89e-05    -  1.00e+00 1.00e+00f  1
  55 -1.1022101e+01 0.00e+00 9.43e-06  -6.7 1.89e-05    -  1.00e+00 1.00e+00f  1
  56 -1.1022101e+01 0.00e+00 9.42e-06  -6.7 1.88e-05    -  1.00e+00 1.00e+00f  1
  57 -1.1022101e+01 0.00e+00 9.41e-06  -6.7 1.88e-05    -  1.00e+00 1.00e+00f  1
  58 -1.1029400e+01 0.00e+00 9.40e-06  -6.7 1.88e-05    -  1.00e+00 1.00e+00f  1
  59 -1.1029400e+01 0.00e+00 4.71e-10 -11.0 9.41e-10    -  1.00e+00 1.00e+00f  1

Number of Iterations....: 59

                                   (scaled)                 (unscaled)
Objective...............:  -1.1029400054053340e+01   -1.1029400054053340e+01
Dual infeasibility......:   4.7061622618871501e-10    4.7061622618871501e-10
Constraint violation....:   0.0000000000000000e+00    0.0000000000000000e+00
Variable bound violation:   0.0000000000000000e+00    0.0000000000000000e+00
Complementarity.........:   1.0000094941778843e-11    1.0000094941778843e-11
Overall NLP error.......:   4.7061622618871501e-10    4.7061622618871501e-10


Number of objective function evaluations             = 138
Number of objective gradient evaluations             = 60
Number of equality constraint evaluations            = 0
Number of inequality constraint evaluations          = 138
Number of equality constraint Jacobian evaluations   = 0
Number of inequality constraint Jacobian evaluations = 60
Number of Lagrangian Hessian evaluations             = 0
Total seconds in IPOPT                               = 0.341

EXIT: Optimal Solution Found.
